50
    1    31    31
    2    42    42
    3    42    42
    4    42    42
    5     6     6
    6    18    18
    7    25    25
    8    18    18
    9    14    14
   10    27    27
   11    13    13
   12     7     7
   13    25    25
   14    17    17
   15    41    41
   16    19    19
   17    19    19
   18    44    44
   19    12    12
   20    34    34
   21    25    25
   22    37    37
   23    37    37
   24    27    27
   25    10    10
   26    49    49
   27    36    36
   28    30    30
   29     6     6
   30     9     9
   31    46    46
   32    50    50
   33     7     7
   34    30    30
   35    18    18
   36    38    38
   37    29    29
   38    36    36
   39     8     8
   40    19    19
   41     1     1
   42     3     3
   43     3     3
   44     9     9
   45    38    38
   46    40    40
   47    50    50
   48    46    46
   49    32    32
   50     7     7
212
